SetGridsize({{ mesh.n[0] }}, {{ mesh.n[1] }}, {{ mesh.n[2] }})
SetCellsize({{ mesh.cell[0] }}, {{ mesh.cell[1] }}, {{ mesh.cell[2] }})
